NAME : zqloutput/eax-hard-simple-rescaleandround/50-4.tsp
TYPE : TSP
DIMENSION : 50
EDGE_WEIGHT_TYPE : EUC_2D
NODE_COORD_SECTION
1 333681 656111
2 402266 770692
3 819677 21721
4 668865 158771
5 18549 400007
6 407644 418759
7 732904 126162
8 243399 488355
9 618521 326864
10 391825 486315
11 279458 950087
12 354445 347674
13 21902 566163
14 647960 668078
15 498944 932870
16 448641 178293
17 797908 816625
18 297111 734759
19 989491 285693
20 741892 474050
21 80438 120667
22 25179 559121
23 58997 945173
24 376804 88273
25 789833 308830
26 433068 600854
27 483263 130226
28 25687 950833
29 160956 177208
30 606227 729313
31 73007 458072
32 729154 719754
33 280543 231701
34 519617 353679
35 941648 835194
36 536705 24509
37 332199 522994
38 734600 95156
39 465247 84838
40 327402 609980
41 542085 24866
42 813349 2787
43 761499 491348
44 69510 420979
45 262160 823826
46 78161 657690
47 177274 840835
48 273590 971518
49 596338 119939
50 693494 667016
EOF
